NAME: instance_564
TYPE: TSP
DIMENSION: 20
EDGE_WEIGHT_TYPE: EUC_2D
NODE_COORD_SECTION
0 9.73 6.77
1 47.74 32.34
2 51.63 96.03
3 96.62 49.15
4 31.60 39.17
5 34.60 36.10
6 50.83 99.80
7 15.36 95.80
8 70.95 24.02
9 84.97 36.39
10 28.19 83.09
11 11.28 4.14
12 20.59 39.98
13 43.49 55.11
14 24.82 84.75
15 84.36 8.33
16 52.99 2.72
17 35.14 36.55
18 82.10 4.88
19 0.29 56.96
EOF
